proyfinal/src/viki/013/experimentInOfficeAgust.take6.output/2884f9ad-8874-4ca0-9b64-f735b0a88351.als.dat
{'cnf.clauses': '118081',
 'cnf.totvars': '69608',
 'conflict literals': '11',
 'conflicts': '7',
 'decisions': '1274',
 'memused.mb': '14.69',
 'outcome': 'UNSAT',
 'propagations': '22057',
 'restarts': '1',
 'solver.msecs': 37,
 'task.msecs': 116}
