proyfinal/src/viki/013/experimentInOfficeAgust.take6.output/2884f9ad-8874-4ca0-9b64-f735b0a88351.als.out
Reading from standard input... Use '--help' for help.
============================[ Problem Statistics ]=============================
|                                                                             |
|  Number of variables:         69608                                         |
|  Number of clauses:          118081                                         |
|  Parse time:                   0.03 s                                       |
|                                                                             |
============================[ Search Statistics ]==============================
| Conflicts |          ORIGINAL         |          LEARNT          | Progress |
|           |    Vars  Clauses Literals |    Limit  Clauses Lit/Cl |          |
===============================================================================
===============================================================================
restarts              : 1
conflicts             : 7              (187 /sec)
decisions             : 1274           (0.00 % random) (34119 /sec)
propagations          : 22057          (590707 /sec)
conflict literals     : 11             (0.00 % deleted)
Memory used           : 14.69 MB
CPU time              : 0.03734 s

UNSATISFIABLE
